p cnf 168 26
c ind 98 99 100 104 107 117 124 126 160 162 0
c ind 163 164 87 161 166 165 159 158 154 157 0
c ind 95 153 156 96 97 152 155 137 139 88 0
c ind 138 136 133 135 89 151 150 149 148 90 0
c ind 147 130 91 131 146 134 129 144 145 128 0
c ind 143 132 142 141 140 92 93 94 127 125 0
c ind 101 102 103 123 122 121 105 106 118 114 0
c ind 119 120 116 112 113 115 111 110 108 109 0
c ind 1 0
c ret 15 50 51 52 16 53 54 55 17 56 0
c ret 57 58 59 60 61 62 63 64 65 66 0
c ret 18 67 68 69 70 71 72 73 74 75 0
c ret 76 77 78 79 7 80 81 82 83 19 0
c ret 84 85 86 20 21 22 23 8 24 25 0
c ret 26 27 28 29 9 30 31 32 33 34 0
c ret 10 35 36 37 38 39 11 40 41 42 0
c ret 12 43 44 45 13 46 47 14 48 49 0
2 -3 5 -6 0
2 -4 5 -6 0
-2 6 0
-2 -5 0
-2 3 4 0
3 -94 -101 -102 -103 0
-3 103 0
-3 94 0
-3 102 0
-3 101 0
4 87 164 0
4 -87 163 0
-4 -87 -163 0
-4 87 -164 0
5 -14 -21 -22 -23 0
-5 23 0
-5 14 0
-5 22 0
-5 21 0
6 -7 -83 0
6 7 -84 0
-6 7 84 0
-6 -7 83 0
1 2 0
-1 -2 0
167 0

